=obj= 182.00000000
0	C0692	1.0
1	C4265	1.0
2	C4272	1.0
3	C4411	1.0
4	C4438	1.0
5	C4441	1.0
6	C4468	1.0
7	C4473	1.0
8	C4636	1.0
9	C4637	1.0
10	C4668	1.0
11	C4669	1.0
12	C4827	1.0
13	C4834	1.0
14	C5792	1.0
15	C5793	1.0
16	C5888	1.0
17	C5889	1.0
18	C5989	1.0
19	C5990	1.0
20	C6079	1.0
21	C6086	1.0
22	C6188	1.0
23	C6282	1.0
24	C6287	1.0
25	C8475	1.0
26	C8549	1.0
27	C8974	1.0
28	C9017	1.0
29	C9024	1.0
30	C9171	1.0
31	C9172	1.0
32	C9203	1.0
33	C9204	1.0
34	C9235	1.0
35	C9236	1.0
36	C9267	1.0
37	C9268	1.0
38	C9341	1.0
39	C9372	1.0
40	C9373	1.0
41	C9402	1.0
42	C9405	1.0
43	C9434	1.0
44	C9437	1.0
45	C9466	1.0
46	C9469	1.0
47	C9583	1.0
48	C9600	1.0
49	C9682	1.0
50	C9734	1.0
51	C9934	1.0
52	C10723	1.0
53	C10724	1.0
54	C10755	1.0
55	C10831	1.0
56	C10838	1.0
57	C13036	1.0
58	C13037	1.0
59	C13239	1.0
60	C13297	1.0
61	C13437	1.0
62	C13456	1.0
63	C13495	1.0
64	C13726	1.0
65	C13771	1.0
66	C13790	1.0
67	C13923	1.0
68	C13924	1.0
69	C13955	1.0
70	C13956	1.0
71	C13987	1.0
72	C13988	1.0
73	C14013	1.0
74	C14018	1.0
75	C14084	1.0
76	C14116	1.0
77	C14119	1.0
78	C14145	1.0
79	C14148	1.0
80	C14163	1.0
81	C14180	1.0
82	C14195	1.0
83	C14212	1.0
84	C14351	1.0
85	C14352	1.0
86	C14434	1.0
87	C14486	1.0
88	C15475	1.0
89	C15476	1.0
90	C15507	1.0
91	C15583	1.0
92	C15592	1.0
93	C17789	1.0
94	C17790	1.0
95	C17991	1.0
96	C18049	1.0
97	C18189	1.0
98	C18194	1.0
99	C18245	1.0
100	C18478	1.0
101	C18541	1.0
102	C18542	1.0
103	C18673	1.0
104	C18676	1.0
105	C18701	1.0
106	C18708	1.0
107	C18733	1.0
108	C18740	1.0
109	C18759	1.0
110	C18760	1.0
111	C18840	1.0
112	C18854	1.0
113	C18861	1.0
114	C18882	1.0
115	C18891	1.0
116	C18914	1.0
117	C18921	1.0
118	C18946	1.0
119	C18947	1.0
120	C19103	1.0
121	C19104	1.0
122	C19186	1.0
123	C19238	1.0
124	C19665	1.0
125	C20227	1.0
126	C20228	1.0
127	C20351	1.0
128	C20356	1.0
129	C22535	1.0
130	C22536	1.0
131	C22733	1.0
132	C22803	1.0
133	C22804	1.0
134	C22931	1.0
135	C22932	1.0
136	C23001	1.0
137	C23229	1.0
138	C23230	1.0
139	C23291	1.0
140	C23294	1.0
141	C23429	1.0
142	C23430	1.0
143	C23461	1.0
144	C23462	1.0
145	C23493	1.0
146	C23494	1.0
147	C23596	1.0
148	C23627	1.0
149	C23628	1.0
150	C23659	1.0
151	C23660	1.0
152	C23691	1.0
153	C23692	1.0
154	C23855	1.0
155	C23856	1.0
156	C24985	1.0
157	C24986	1.0
158	C25105	1.0
159	C25106	1.0
160	C26976	1.0
161	C27174	1.0
162	C27175	1.0
163	C27269	1.0
164	C27270	1.0
165	C27571	1.0
166	C27665	1.0
167	C27666	1.0
168	C27983	1.0
169	C27986	1.0
170	C28043	1.0
171	C28046	1.0
172	C28196	1.0
173	C28197	1.0
174	C28228	1.0
175	C28229	1.0
176	C28394	1.0
177	C28395	1.0
178	C28425	1.0
179	C28426	1.0
180	C28609	1.0
181	C28612	1.0
